30
3 0 7
3 2 13
4 1 13
4 2 13
5 2 4
6 1 2
7 0 12
7 1 14
7 2 9
8 2 14
8 5 10
8 6 14
9 0 12
9 2 11
9 4 9
9 7 10
9 8 8
10 1 1
10 2 5
10 3 11
10 4 14
10 8 4
11 2 14
11 3 5
11 5 4
11 7 14
11 8 9
11 9 8
11 10 10
12 0 6
12 2 10
12 3 14
12 4 9
12 5 7
12 7 13
12 8 13
12 9 6
12 10 4
12 11 14
13 2 11
13 7 11
13 10 5
14 1 14
14 2 9
14 3 2
14 7 2
14 10 8
14 11 4
14 12 13
15 0 9
15 1 9
15 2 4
15 4 3
15 5 2
15 6 12
15 13 1
15 14 6
16 1 4
16 4 3
16 5 7
16 6 4
16 7 13
16 8 1
16 10 12
16 11 3
16 12 2
16 13 12
16 15 1
17 1 7
17 5 10
17 7 9
17 9 14
17 12 14
17 13 11
17 16 2
18 1 11
18 2 1
18 3 6
18 8 11
18 9 9
18 10 7
18 11 14
18 12 10
18 14 4
18 17 12
19 1 4
19 3 13
19 4 3
19 6 5
19 9 3
19 10 5
19 15 5
19 17 5
19 18 14
20 6 12
20 7 2
20 8 9
20 11 6
20 12 1
20 16 4
20 19 6
21 2 12
21 6 6
21 9 6
21 10 9
21 12 3
21 13 10
21 15 9
21 17 4
21 18 2
21 20 4
22 0 13
22 1 12
22 8 2
22 9 14
22 12 7
22 13 9
22 14 9
22 16 6
22 17 13
23 0 7
23 2 6
23 4 2
23 6 2
23 7 10
23 8 12
23 16 14
23 17 9
23 18 13
23 21 7
24 2 9
24 4 4
24 8 6
24 9 9
24 10 10
24 11 4
24 12 9
24 13 12
24 14 4
24 16 8
24 18 7
24 19 3
24 20 12
24 22 7
24 23 3
25 0 9
25 2 7
25 5 4
25 6 2
25 7 6
25 8 4
25 13 13
25 15 9
25 20 3
25 21 1
26 3 14
26 5 8
26 6 13
26 10 12
26 14 6
26 18 5
26 19 7
26 22 10
26 23 5
27 0 11
27 1 2
27 2 12
27 6 3
27 7 4
27 9 8
27 10 1
27 12 11
27 13 2
27 16 10
27 17 11
27 19 4
27 20 1
27 21 8
27 23 6
27 25 12
28 0 4
28 3 8
28 4 14
28 5 11
28 6 7
28 8 12
28 12 10
28 15 6
28 19 10
28 22 11
28 23 8
28 24 10
28 26 8
28 27 4
29 4 11
29 7 9
29 12 11
29 16 1
29 17 10
29 18 8
29 21 11
29 22 5
29 23 4
29 24 8
29 26 8
29 27 1
